<number of tasks>
20

<cycle time>
1000

<order strength>
0,511


<task times>
1 273
2 469
3 396
4 264
5 218
6 287
7 44
8 573
9 215
10 82
11 185
12 585
13 143
14 234
15 280
16 504
17 499
18 399
19 143
20 47

<precedence relations>
1,3
1,4
1,5
2,15
2,16
3,7
3,8
4,6
5,6
5,9
6,11
6,15
7,10
7,13
7,14
8,9
8,14
9,13
10,12
10,15
10,16
11,12
11,14
12,18
13,16
13,17
13,20
15,19
15,20

<end>
